job_count = 14 ;
duration = [|7, 9|19, 1|13, 2|8, 2|4, 5|18, 6|18, 2|3, 4|2, 3|16, 9|14, 5|6, 6|14, 1|14, 1|] ;
machine_count = 2 ;
cost = [|10, 32|18, 27|10, 37|16, 21|10, 20|16, 36|16, 30|12, 24|11, 29|12, 35|11, 23|13, 20|10, 29|10, 28|] ;
deadline = [35, 35, 35, 35, 35, 35, 35, 35, 35, 35, 35, 35, 35, 35] ;
release = [0, 0, 0, 0, 0, 0, 0, 0, 0, 0, 0, 0, 0, 0] ;
resource = [|1, 1|5, 5|8, 8|4, 4|2, 2|8, 8|1, 1|1, 1|1, 1|2, 2|1, 1|7, 7|7, 7|9, 9|] ;
capacities = [10, 10] ;
